Version identifier: 12.10.0.0 | 2019-11-26 | 843d4de
CPXPARAM_WorkMem                                 28672
Tried aggregator 2 times.
MIP Presolve eliminated 14 rows and 0 columns.
MIP Presolve added 28 rows and 0 columns.
Aggregator did 40 substitutions.
Reduced MIP has 76 rows, 70 columns, and 314 nonzeros.
Reduced MIP has 70 binaries, 0 generals, 0 SOSs, and 0 indicators.
Presolve time = 0,00 sec. (0,63 ticks)
Found incumbent of value 318,000000 after 0,00 sec. (0,73 ticks)
Probing fixed 6 vars, tightened 0 bounds.
Probing time = 0,00 sec. (0,36 ticks)
Tried aggregator 1 time.
Detecting symmetries...
MIP Presolve eliminated 6 rows and 6 columns.
Reduced MIP has 70 rows, 64 columns, and 278 nonzeros.
Reduced MIP has 64 binaries, 0 generals, 0 SOSs, and 0 indicators.
Presolve time = 0,00 sec. (0,24 ticks)
Probing time = 0,00 sec. (0,29 ticks)
Clique table members: 254.
MIP emphasis: balance optimality and feasibility.
MIP search method: dynamic search.
Parallel mode: deterministic, using up to 16 threads.
Root relaxation solution time = 0,00 sec. (0,15 ticks)

        Nodes                                         Cuts/
   Node  Left     Objective  IInf  Best Integer    Best Bound    ItCnt     Gap

*     0+    0                          318,0000       50,0000            84,28%
*     0+    0                          301,0000       50,0000            83,39%
      0     0      201,0000    62      301,0000      201,0000       30   33,22%
*     0+    0                          295,0000      201,0000            31,86%
      0     0      264,3581    62      295,0000      Cuts: 64       95   10,39%
      0     0      269,8095    62      295,0000      Cuts: 45      129    8,54%
      0     0      269,9729    62      295,0000      Cuts: 17      140    8,48%
      0     0      270,0102    62      295,0000      Cuts: 21      149    8,47%
      0     0      270,0249    62      295,0000      Cuts: 27      156    8,47%
Detecting symmetries...
      0     0      270,0444    62      295,0000       Cuts: 8      162    8,46%
      0     0      270,0809    62      295,0000      Cuts: 29      167    8,45%
      0     0      270,0947    62      295,0000   ZeroHalf: 1      171    8,44%
      0     0      270,0991    62      295,0000      Cuts: 13      175    8,44%
      0     0        cutoff            295,0000      295,0000      175    0,00%
Elapsed time = 0,03 sec. (14,79 ticks, tree = 0,01 MB, solutions = 3)

Cover cuts applied:  4
Implied bound cuts applied:  14
Flow cuts applied:  1
Mixed integer rounding cuts applied:  8
Zero-half cuts applied:  6
Gomory fractional cuts applied:  7

Root node processing (before b&c):
  Real time             =    0,03 sec. (14,80 ticks)
Parallel b&c, 16 threads:
  Real time             =    0,00 sec. (0,00 ticks)
  Sync time (average)   =    0,00 sec.
  Wait time (average)   =    0,00 sec.
                          ------------
Total (root+branch&cut) =    0,03 sec. (14,80 ticks)
